data/solutions/recovery/degenerate/intermediate/binding/degenerate_intermediate_instance38/23.sol
Elapsed time: 0.13
Upper bound: 301229.0
Planning weighted value: 14167552961.0
C[0]=301229.0
C[1]=299403.0
C[2]=297820.0
C[3]=296518.0
C[4]=294835.0
C[5]=293232.0
C[6]=291637.0
C[7]=291049.0
C[8]=289719.0
C[9]=286218.0
C[10]=286212.0
C[11]=280637.0
C[12]=275909.0
C[13]=0.0
C[14]=0.0
C[15]=0.0
y[0]=11
y[1]=7
y[2]=12
y[3]=2
y[4]=6
y[5]=1
y[6]=9
y[7]=11
y[8]=2
y[9]=10
y[10]=2
y[11]=7
y[12]=10
y[13]=6
y[14]=11
y[15]=6
y[16]=2
y[17]=0
y[18]=7
y[19]=1
y[20]=4
y[21]=10
y[22]=6
y[23]=0
y[24]=10
y[25]=12
y[26]=7
y[27]=3
y[28]=5
y[29]=11
y[30]=12
y[31]=1
y[32]=8
y[33]=0
y[34]=0
y[35]=2
y[36]=4
y[37]=5
y[38]=12
y[39]=8
y[40]=6
y[41]=0
y[42]=1
y[43]=4
y[44]=11
y[45]=2
y[46]=4
y[47]=10
y[48]=8
y[49]=5
y[50]=0
y[51]=9
y[52]=7
y[53]=0
y[54]=5
y[55]=3
y[56]=5
y[57]=9
y[58]=3
y[59]=5
y[60]=3
y[61]=1
y[62]=9
y[63]=3
y[64]=4
y[65]=8
