data/solutions/recovery/degenerate/intermediate/binding/degenerate_intermediate_instance38/23.log

Log started (V12.6.3.0) Sun Apr 22 12:34:46 2018

New value for default parallel thread count: 1

Problem '/tmp/tmppPUCWC.pyomo.lp' read.
Read time = 0.01 sec. (0.70 ticks)

Problem name         : /tmp/tmppPUCWC.pyomo.lp
Objective sense      : Minimize
Variables            :    1074  [Nneg: 1,  Binary: 1056,  General Integer: 17]
Objective nonzeros   :       1
Linear constraints   :     168  [Less: 82,  Equal: 86]
  Nonzeros           :   49863
  RHS nonzeros       :      67

Variables            : Min LB: 0.000000         Max UB: 1.000000       
Objective nonzeros   : Min   : 1.000000         Max   : 1.000000       
Linear constraints   :
  Nonzeros           : Min   : 1.000000         Max   : 117484.0       
  RHS nonzeros       : Min   : 1.000000         Max   : 1.000000       
Tried aggregator 2 times.
MIP Presolve eliminated 124 rows and 826 columns.
Aggregator did 13 substitutions.
Reduced MIP has 31 rows, 235 columns, and 481 nonzeros.
Reduced MIP has 234 binaries, 1 generals, 0 SOSs, and 0 indicators.
Presolve time = 0.00 sec. (3.90 ticks)
Found incumbent of value 1324721.000000 after 0.00 sec. (5.18 ticks)
Probing time = 0.00 sec. (0.31 ticks)
Cover probing fixed 0 vars, tightened 2 bounds.
Tried aggregator 1 time.
Reduced MIP has 31 rows, 235 columns, and 481 nonzeros.
Reduced MIP has 234 binaries, 1 generals, 0 SOSs, and 0 indicators.
Presolve time = 0.00 sec. (0.42 ticks)
Probing time = 0.00 sec. (0.31 ticks)
Clique table members: 18.
MIP emphasis: balance optimality and feasibility.
MIP search method: dynamic search.
Parallel mode: none, using 1 thread.
Root relaxation solution time = 0.00 sec. (0.42 ticks)

        Nodes                                         Cuts/
   Node  Left     Objective  IInf  Best Integer    Best Bound    ItCnt     Gap

*     0+    0                      1324721.0000   258183.0000            80.51%
      0     0   291109.0769    22  1324721.0000   291109.0769       61   78.02%
*     0+    0                       358021.0000   291109.0769            18.69%
      0     0   291110.0000    21   358021.0000      Cuts: 12      104   18.69%
*     0+    0                       352869.0000   291110.0000            17.50%
      0     0   291110.0000    34   352869.0000      Cuts: 34      195   17.50%
*     0+    0                       346472.0000   291110.0000            15.98%
      0     0   291110.0000    37   346472.0000      Cuts: 13      270   15.98%
*     0+    0                       342966.0000   291110.0000            15.12%
*     0+    0                       326643.0000   291110.0000            10.88%
*     0+    0                       323511.0000   291110.0000            10.02%
*     0+    0                       311534.0000   291110.0000             6.56%
*     0+    0                       310586.0000   291110.0000             6.27%
*     0+    0                       306452.0000   291110.0000             5.01%
      0     2   291110.0000    22   306452.0000   291110.0000      270    5.01%
Elapsed time = 0.02 sec. (22.45 ticks, tree = 0.01 MB, solutions = 9)
*    40+   39                       305286.0000   291245.7500             4.60%
*    60+   57                       304482.0000   291245.7500             4.35%
*    70    56      integral     0   302984.0000   291245.7500      665    3.87%
*    72    56      integral     0   302620.0000   291245.7500      668    3.76%
*   120+   95                       301971.0000   291245.7500             3.55%
*   495+  286                       301229.0000   299403.0000             0.61%

GUB cover cuts applied:  1
Clique cuts applied:  6
Cover cuts applied:  25
Mixed integer rounding cuts applied:  9
Zero-half cuts applied:  2
Gomory fractional cuts applied:  3

Root node processing (before b&c):
  Real time             =    0.02 sec. (22.55 ticks)
Sequential b&c:
  Real time             =    0.07 sec. (71.45 ticks)
                          ------------
Total (root+branch&cut) =    0.10 sec. (94.00 ticks)

Solution pool: 15 solutions saved.

MIP - Integer optimal solution:  Objective =  3.0122900000e+05
Solution time =    0.10 sec.  Iterations = 3166  Nodes = 499
Deterministic time = 94.00 ticks  (966.81 ticks/sec)


Incumbent solution written to file '/tmp/tmpceCnPg.cplex.sol'.
